1
0
100
0
1 1 0
128 256 1
1.495978707000000000e+12
1.550780787917850830e+12
1.607590429544202393e+12
1.666481174706823486e+12
1.727529260322629395e+12
1.790813716090057617e+12
1.856416466796832764e+12
1.924422438375565186e+12
1.994919667844477783e+12
2.067999417275580566e+12
2.143756291937838379e+12
2.222288362768261719e+12
2.303697293329480469e+12
2.388088471418137695e+12
2.475571145494490234e+12
2.566258566109820312e+12
2.660268132514750977e+12
2.757721544638251953e+12
2.858744960634083008e+12
2.963469160198621094e+12
3.072029713871502441e+12
3.184567158538238770e+12
3.301227179362013672e+12
3.422160798380165527e+12
3.547524570009521484e+12
3.677480783713655762e+12
3.812197674094447754e+12
3.951849638679908203e+12
4.096617463690211914e+12
4.246688558074199219e+12
4.402257196119322266e+12
4.563524768949103516e+12
4.730700045233677734e+12
4.903999441450937500e+12
5.083647302048121094e+12
5.269876189866545898e+12
5.462927187205456055e+12
5.663050207914708008e+12
5.870504320920337891e+12
6.085558085601809570e+12
6.308489899455115234e+12
6.539588358491795898e+12
6.779152630840427734e+12
7.027492844034237305e+12
7.284930486486178711e+12
7.551798823671230469e+12
7.828443329554671875e+12
8.115222133824822266e+12
8.412506485509249023e+12
8.720681233574581055e+12
9.040145325132093750e+12
9.371312321894048828e+12
9.714610935549310547e+12
1.007048558275136523e+13
1.043939696043716602e+13
1.082182264222158398e+13
1.121825769663954688e+13
1.162921532803619727e+13
1.205522754093472852e+13
1.249684582874195703e+13
1.295464188768320508e+13
1.342920835689070898e+13
1.392115958560362305e+13
1.443113242847281250e+13
1.495978707000000000e+13
1.550780787917850977e+13
1.607590429544202344e+13
1.666481174706823438e+13
1.727529260322629492e+13
1.790813716090057422e+13
1.856416466796832812e+13
1.924422438375565234e+13
1.994919667844477734e+13
2.067999417275580469e+13
2.143756291937838281e+13
2.222288362768261719e+13
2.303697293329480859e+13
2.388088471418138281e+13
2.475571145494490234e+13
2.566258566109819922e+13
2.660268132514750391e+13
2.757721544638251953e+13
2.858744960634083203e+13
2.963469160198621094e+13
3.072029713871501953e+13
3.184567158538238672e+13
3.301227179362013672e+13
3.422160798380165625e+13
3.547524570009521094e+13
3.677480783713655469e+13
3.812197674094447656e+13
3.951849638679907812e+13
4.096617463690212500e+13
4.246688558074200000e+13
4.402257196119322656e+13
4.563524768949103125e+13
4.730700045233678125e+13
4.903999441450937500e+13
5.083647302048120312e+13
5.269876189866545312e+13
5.462927187205455469e+13
5.663050207914707812e+13
5.870504320920338281e+13
6.085558085601809375e+13
6.308489899455114844e+13
6.539588358491795312e+13
6.779152630840428125e+13
7.027492844034236719e+13
7.284930486486178125e+13
7.551798823671231250e+13
7.828443329554671875e+13
8.115222133824821875e+13
8.412506485509250000e+13
8.720681233574579688e+13
9.040145325132093750e+13
9.371312321894046875e+13
9.714610935549309375e+13
1.007048558275136562e+14
1.043939696043716562e+14
1.082182264222158281e+14
1.121825769663954531e+14
1.162921532803619844e+14
1.205522754093472656e+14
1.249684582874195625e+14
1.295464188768320625e+14
1.342920835689070938e+14
1.392115958560362188e+14
1.443113242847281250e+14
1.495978707000000000e+14
1.220796326794896469e+00
1.222163514294896558e+00
1.223530701794896425e+00
1.224897889294896514e+00
1.226265076794896380e+00
1.227632264294896469e+00
1.228999451794896558e+00
1.230366639294896425e+00
1.231733826794896514e+00
1.233101014294896380e+00
1.234468201794896469e+00
1.235835389294896558e+00
1.237202576794896425e+00
1.238569764294896514e+00
1.239936951794896380e+00
1.241304139294896469e+00
1.242671326794896558e+00
1.244038514294896425e+00
1.245405701794896514e+00
1.246772889294896380e+00
1.248140076794896469e+00
1.249507264294896558e+00
1.250874451794896425e+00
1.252241639294896514e+00
1.253608826794896380e+00
1.254976014294896469e+00
1.256343201794896558e+00
1.257710389294896425e+00
1.259077576794896514e+00
1.260444764294896380e+00
1.261811951794896469e+00
1.263179139294896558e+00
1.264546326794896425e+00
1.265913514294896514e+00
1.267280701794896380e+00
1.268647889294896469e+00
1.270015076794896558e+00
1.271382264294896425e+00
1.272749451794896514e+00
1.274116639294896380e+00
1.275483826794896469e+00
1.276851014294896558e+00
1.278218201794896425e+00
1.279585389294896514e+00
1.280952576794896380e+00
1.282319764294896469e+00
1.283686951794896558e+00
1.285054139294896425e+00
1.286421326794896514e+00
1.287788514294896380e+00
1.289155701794896469e+00
1.290522889294896558e+00
1.291890076794896425e+00
1.293257264294896514e+00
1.294624451794896380e+00
1.295991639294896469e+00
1.297358826794896558e+00
1.298726014294896425e+00
1.300093201794896514e+00
1.301460389294896380e+00
1.302827576794896469e+00
1.304194764294896558e+00
1.305561951794896425e+00
1.306929139294896514e+00
1.308296326794896380e+00
1.309663514294896469e+00
1.311030701794896558e+00
1.312397889294896425e+00
1.313765076794896514e+00
1.315132264294896380e+00
1.316499451794896469e+00
1.317866639294896558e+00
1.319233826794896425e+00
1.320601014294896514e+00
1.321968201794896380e+00
1.323335389294896469e+00
1.324702576794896558e+00
1.326069764294896425e+00
1.327436951794896514e+00
1.328804139294896380e+00
1.330171326794896469e+00
1.331538514294896558e+00
1.332905701794896425e+00
1.334272889294896514e+00
1.335640076794896380e+00
1.337007264294896469e+00
1.338374451794896558e+00
1.339741639294896425e+00
1.341108826794896514e+00
1.342476014294896602e+00
1.343843201794896469e+00
1.345210389294896558e+00
1.346577576794896425e+00
1.347944764294896514e+00
1.349311951794896380e+00
1.350679139294896469e+00
1.352046326794896558e+00
1.353413514294896425e+00
1.354780701794896514e+00
1.356147889294896380e+00
1.357515076794896469e+00
1.358882264294896558e+00
1.360249451794896425e+00
1.361616639294896514e+00
1.362983826794896380e+00
1.364351014294896469e+00
1.365718201794896558e+00
1.367085389294896425e+00
1.368452576794896514e+00
1.369819764294896602e+00
1.371186951794896469e+00
1.372554139294896558e+00
1.373921326794896425e+00
1.375288514294896514e+00
1.376655701794896602e+00
1.378022889294896469e+00
1.379390076794896558e+00
1.380757264294896425e+00
1.382124451794896514e+00
1.383491639294896602e+00
1.384858826794896469e+00
1.386226014294896558e+00
1.387593201794896425e+00
1.388960389294896514e+00
1.390327576794896602e+00
1.391694764294896469e+00
1.393061951794896558e+00
1.394429139294896425e+00
1.395796326794896514e+00
1.397163514294896602e+00
1.398530701794896469e+00
1.399897889294896558e+00
1.401265076794896425e+00
1.402632264294896514e+00
1.403999451794896602e+00
1.405366639294896469e+00
1.406733826794896558e+00
1.408101014294896425e+00
1.409468201794896514e+00
1.410835389294896602e+00
1.412202576794896469e+00
1.413569764294896558e+00
1.414936951794896425e+00
1.416304139294896514e+00
1.417671326794896602e+00
1.419038514294896469e+00
1.420405701794896558e+00
1.421772889294896425e+00
1.423140076794896514e+00
1.424507264294896602e+00
1.425874451794896469e+00
1.427241639294896558e+00
1.428608826794896647e+00
1.429976014294896514e+00
1.431343201794896602e+00
1.432710389294896469e+00
1.434077576794896558e+00
1.435444764294896647e+00
1.436811951794896514e+00
1.438179139294896602e+00
1.439546326794896469e+00
1.440913514294896558e+00
1.442280701794896647e+00
1.443647889294896514e+00
1.445015076794896602e+00
1.446382264294896469e+00
1.447749451794896558e+00
1.449116639294896647e+00
1.450483826794896514e+00
1.451851014294896602e+00
1.453218201794896469e+00
1.454585389294896558e+00
1.455952576794896647e+00
1.457319764294896514e+00
1.458686951794896602e+00
1.460054139294896469e+00
1.461421326794896558e+00
1.462788514294896647e+00
1.464155701794896514e+00
1.465522889294896602e+00
1.466890076794896469e+00
1.468257264294896558e+00
1.469624451794896647e+00
1.470991639294896514e+00
1.472358826794896602e+00
1.473726014294896469e+00
1.475093201794896558e+00
1.476460389294896647e+00
1.477827576794896514e+00
1.479194764294896602e+00
1.480561951794896469e+00
1.481929139294896558e+00
1.483296326794896647e+00
1.484663514294896514e+00
1.486030701794896602e+00
1.487397889294896469e+00
1.488765076794896558e+00
1.490132264294896647e+00
1.491499451794896514e+00
1.492866639294896602e+00
1.494233826794896469e+00
1.495601014294896558e+00
1.496968201794896647e+00
1.498335389294896514e+00
1.499702576794896602e+00
1.501069764294896469e+00
1.502436951794896558e+00
1.503804139294896647e+00
1.505171326794896514e+00
1.506538514294896602e+00
1.507905701794896469e+00
1.509272889294896558e+00
1.510640076794896647e+00
1.512007264294896514e+00
1.513374451794896602e+00
1.514741639294896469e+00
1.516108826794896558e+00
1.517476014294896647e+00
1.518843201794896514e+00
1.520210389294896602e+00
1.521577576794896469e+00
1.522944764294896558e+00
1.524311951794896647e+00
1.525679139294896514e+00
1.527046326794896602e+00
1.528413514294896469e+00
1.529780701794896558e+00
1.531147889294896647e+00
1.532515076794896514e+00
1.533882264294896602e+00
1.535249451794896469e+00
1.536616639294896558e+00
1.537983826794896647e+00
1.539351014294896514e+00
1.540718201794896602e+00
1.542085389294896469e+00
1.543452576794896558e+00
1.544819764294896647e+00
1.546186951794896514e+00
1.547554139294896602e+00
1.548921326794896469e+00
1.550288514294896558e+00
1.551655701794896647e+00
1.553022889294896514e+00
1.554390076794896602e+00
1.555757264294896469e+00
1.557124451794896558e+00
1.558491639294896647e+00
1.559858826794896514e+00
1.561226014294896602e+00
1.562593201794896469e+00
1.563960389294896558e+00
1.565327576794896647e+00
1.566694764294896514e+00
1.568061951794896602e+00
1.569429139294896469e+00
1.570796326794896558e+00
0.000000000000000000e+00
6.283185307179586232e+00
