2               Format number of this file
2               Nr of dust species
============================================================================
1               Way in which this dust species is read
0               0=Thermal grain
flat            Extension of name of dustkappa_<name>.inp file
----------------------------------------------------------------------------
1               Way in which this dust species is read
0               0=Thermal grain
0.1um            Extension of name of dustkappa_<name>.inp file
----------------------------------------------------------------------------
