2
1 180

6.957008266198277283e+10 1.988409870698050957e+33 0.000000000000000000e+00 0.000000000000000000e+00 0.000000000000000000e+00

4.999999999999999584e-02
5.895323010823832338e-02
6.950966680389795982e-02
8.195638763674348293e-02
9.663187558377836495e-02
1.139352239416228513e-01
1.343369894892831873e-01
1.583919890681941556e-01
1.867543875767764261e-01
2.201954876907365743e-01
2.596247050925551969e-01
3.061142996220984625e-01
3.609285349008757859e-01
4.255580594128131611e-01
5.017604440195789772e-01
5.916079783099615907e-01
6.975440255835366754e-01
8.224494690170626177e-01
9.697210559872265767e-01
1.143363771088377501e+00
1.348099749887925025e+00
1.589496695280027572e+00
1.874119288662558169e+00
2.209707713496234849e+00
2.605388146113853942e+00
3.071920937982530297e+00
3.621993238623989253e+00
4.270564016941671426e+00
5.035270863654502271e+00
5.936909637646635929e+00
6.999999999999999112e+00
7.074651584812305494e+00
7.150099292355322156e+00
7.226351612889560627e+00
7.303417127220011906e+00
7.381304507661771375e+00
7.460022519015936382e+00
7.539580019555940815e+00
7.619985962024375503e+00
7.701249394640466761e+00
7.783379462118284131e+00
7.866385406695809657e+00
7.950276569174985930e+00
8.035062389972850383e+00
8.120752410183881054e+00
8.207356272653678175e+00
8.294883723064078396e+00
8.383344611029869498e+00
8.472748891207166011e+00
8.563106624413642010e+00
8.654427978760672602e+00
8.746723230797595505e+00
8.840002766668114020e+00
8.934277083279106080e+00
9.029556789481825163e+00
9.125852607265759531e+00
9.223175372965172869e+00
9.321536038478553721e+00
9.420945672501046531e+00
9.521415461770024180e+00
9.622956712323956552e+00
9.725580850774697694e+00
9.829299425593346129e+00
9.934124108409806198e+00
1.004006669532622276e+01
1.014713910824441534e+01
1.025535339620746988e+01
1.036472173675563369e+01
1.047525643729668410e+01
1.058696993649089713e+01
1.069987480565079530e+01
1.081398375015580804e+01
1.092930961088204000e+01
1.104586536564728227e+01
1.116366413067142105e+01
1.128271916205240544e+01
1.140304385725802838e+01
1.152465175663353314e+01
1.164755654492533665e+01
1.177177205282099592e+01
1.189731225850560570e+01
1.202419128923479974e+01
1.215242342292446764e+01
1.228202308975753709e+01
1.241300487380778250e+01
1.254538351468101709e+01
1.267917390917374476e+01
1.281439111294955069e+01
1.295105034223332652e+01
1.308916697552356467e+01
1.322875655532295092e+01
1.336983478988738128e+01
1.351241755499364494e+01
1.365652089572590988e+01
1.380216102828138247e+01
1.394935434179507894e+01
1.409811740018413495e+01
1.424846694401180258e+01
1.440041989237126252e+01
1.455399334478957485e+01
1.470920458315189983e+01
1.486607107364628533e+01
1.502461046872915773e+01
1.518484060911175249e+01
1.534677952576781479e+01
1.551044544196261299e+01
1.567585677530365373e+01
1.584303213981325165e+01
1.601199034802315779e+01
1.618275041309162532e+01
1.635533155094295310e+01
1.652975318242989289e+01
1.670603493551912422e+01
1.688419664750000848e+01
1.706425836721694722e+01
1.724624035732542637e+01
1.743016309657231844e+01
1.761604728210033954e+01
1.780391383177709130e+01
1.799378388654907113e+01
1.818567881282064036e+01
1.837962020485845116e+01
1.857562988722144581e+01
1.877372991721685480e+01
1.897394258738235706e+01
1.917629042799460848e+01
1.938079620960472482e+01
1.958748294560062320e+01
1.979637389479678333e+01
2.000749256405157084e+01
2.022086271091255227e+01
2.043650834628993707e+01
2.065445373715857258e+01
2.087472340928875880e+01
2.109734215000617397e+01
2.132233501098123085e+01
2.154972731104818706e+01
2.177954463905429350e+01
2.201181285673941090e+01
2.224655810164618686e+01
2.248380679006145755e+01
2.272358561998885307e+01
2.296592157415317459e+01
2.321084192303684901e+01
2.345837422794864580e+01
2.370854634412529549e+01
2.396138642386599571e+01
2.421692291970051514e+01
2.447518458759095594e+01
2.473620049016771816e+01
2.499999999999999645e+01
3.073733534236562548e+01
3.779135135796155254e+01
4.646421758923315082e+01
5.712744949843610698e+01
7.023782289949949131e+01
8.635694064718408924e+01
1.061752897525305173e+02
1.305418194478546070e+02
1.605003072228502106e+02
1.973340706264580717e+02
2.426209401327802198e+02
2.983008479176510264e+02
3.667589278142737612e+02
4.509276861613521987e+02
5.544126201879395239e+02
6.816466649902511108e+02
8.380800850724195925e+02
1.030413944745171193e+03
1.266887158443286125e+03
1.557629417200317903e+03
1.915095109424787097e+03
2.354596823636563386e+03
2.894961286567441221e+03
3.559335834735584740e+03
4.376179965934657957e+03
5.380484445259026870e+03
6.615270187932363115e+03
8.133431125873238670e+03
9.999999999999998181e+03

-5.772000000000000000e+03
