#============================================================================
# Opacities computed by OpTool        <a^n>=  1.0000E+4  1.0000E+4  1.0000E+4
# Method:   DHS  fmax=  0.800
# Parameters:
#   amin [um]=  10000.000 amax [um]=  10000.000  na  =    1     apow=   3.5    
#   lmin [um]=      0.050 lmax [um]=  10000.000  nlam=   60     nang=   180
#   porosity =      0.250 p_mantle =      0.000  fmax= 0.80     chop=   0.0
# Composition:
#  Where   mfrac  rho   Material
#  -----   -----  ----  -----------------------------------------------------
#  core    0.870  3.01  pyr-mg70
#  core    0.130  1.80  c-z
#  - - -   - - -  -  -  - - - - - - - - - - - - - - - - - - - - - - - - - - -
#  grain   1.000  2.08  mixture of  2 materials and vacuum
#----------------------------------------------------------------------------
# Command: optool -radmc 1cm -a 10000 -l 0.05 10000 60
#============================================================================
# Output file formatted for RADMC-3D, dustkappa, no scattering matrix
#    iformat
#    nlambda
#    lambda[um]  kabs [cm^2/g]  ksca [cm^2/g]    g_asymmetry
#============================================================================
           3
          60
   5.000000E-02   5.209370E-01   6.115485E-01   9.999604E-01
   6.149191E-02   5.209370E-01   6.115485E-01   9.999596E-01
   7.562510E-02   5.209370E-01   6.115485E-01   9.999584E-01
   9.300663E-02   5.209370E-01   6.115485E-01   9.999567E-01
   1.143831E-01   5.201078E-01   6.123772E-01   9.999537E-01
   1.406727E-01   5.189640E-01   6.135213E-01   9.999490E-01
   1.730047E-01   5.194758E-01   6.130097E-01   9.999428E-01
   2.127677E-01   5.197407E-01   6.127376E-01   9.999334E-01
   2.616699E-01   5.168330E-01   6.156406E-01   9.999148E-01
   3.218116E-01   5.126849E-01   6.197934E-01   9.998809E-01
   3.957762E-01   5.106490E-01   6.218332E-01   9.998316E-01
   4.867407E-01   5.087447E-01   6.237407E-01   9.997537E-01
   5.986122E-01   5.068139E-01   6.256745E-01   9.996298E-01
   7.361962E-01   5.054417E-01   6.270487E-01   9.994408E-01
   9.054022E-01   5.044642E-01   6.280279E-01   9.991531E-01
   1.113498E+00   5.038244E-01   6.286687E-01   9.987181E-01
   1.369423E+00   5.031465E-01   6.293475E-01   9.980483E-01
   1.684168E+00   5.029780E-01   6.295163E-01   9.970544E-01
   2.071254E+00   5.028743E-01   6.296203E-01   9.955517E-01
   2.547307E+00   5.026886E-01   6.298063E-01   9.932602E-01
   3.132776E+00   5.025919E-01   6.299031E-01   9.898015E-01
   3.852807E+00   5.023423E-01   6.301529E-01   9.845025E-01
   4.738329E+00   5.027680E-01   6.297271E-01   9.768085E-01
   5.827378E+00   5.055308E-01   6.269634E-01   9.672060E-01
   7.166732E+00   5.115678E-01   6.209546E-01   9.599052E-01
   8.813921E+00   4.980875E-01   6.345608E-01   9.411173E-01
   1.083970E+01   4.514111E-01   6.816895E-01   8.625668E-01
   1.333107E+01   4.840000E-01   6.494952E-01   9.081025E-01
   1.639506E+01   4.918249E-01   6.421424E-01   9.233251E-01
   2.016327E+01   4.395730E-01   6.951297E-01   8.477073E-01
   2.479756E+01   4.375027E-01   6.978902E-01   8.412212E-01
   3.049699E+01   4.306274E-01   7.055700E-01   8.304115E-01
   3.750636E+01   4.292122E-01   7.078617E-01   8.270196E-01
   4.612675E+01   4.297449E-01   7.083353E-01   8.268562E-01
   5.672844E+01   4.293862E-01   7.098480E-01   8.255155E-01
   6.976680E+01   4.289762E-01   7.115810E-01   8.241041E-01
   8.580188E+01   4.279651E-01   7.141031E-01   8.217814E-01
   1.055224E+02   4.280096E-01   7.157843E-01   8.208075E-01
   1.297755E+02   4.280675E-01   7.176960E-01   8.196823E-01
   1.596029E+02   4.281635E-01   7.198441E-01   8.183980E-01
   1.962857E+02   4.284766E-01   7.220839E-01   8.171686E-01
   2.413996E+02   4.292481E-01   7.242173E-01   8.162630E-01
   2.968825E+02   4.302903E-01   7.264790E-01   8.153771E-01
   3.651174E+02   4.316162E-01   7.289033E-01   8.144384E-01
   4.490353E+02   4.335460E-01   7.312462E-01   8.138456E-01
   5.522408E+02   4.358107E-01   7.338946E-01   8.130995E-01
   6.791668E+02   4.382773E-01   7.368335E-01   8.119844E-01
   8.352652E+02   4.407472E-01   7.398578E-01   8.098618E-01
   1.027241E+03   4.421823E-01   7.443666E-01   8.072163E-01
   1.263340E+03   4.379665E-01   7.550104E-01   8.019341E-01
   1.553704E+03   4.316777E-01   7.734221E-01   8.057918E-01
   1.910805E+03   4.217525E-01   7.858888E-01   8.067020E-01
   2.349980E+03   3.975432E-01   8.256789E-01   7.943467E-01
   2.890096E+03   3.639442E-01   8.514600E-01   7.773223E-01
   3.554350E+03   3.289781E-01   9.186484E-01   7.767933E-01
   4.371275E+03   2.891415E-01   1.014728E+00   7.757859E-01
   5.375961E+03   2.426372E-01   1.059126E+00   7.454144E-01
   6.611562E+03   2.116789E-01   1.040211E+00   7.158109E-01
   8.131151E+03   1.802717E-01   1.068468E+00   7.278685E-01
   1.000000E+04   1.589573E-01   1.217353E+00   7.285014E-01
