#============================================================================
# Opacities computed by OpTool        <a^n>=  1.0000E-1  1.0000E-1  1.0000E-1
# Method:   DHS  fmax=  0.800
# Parameters:
#   amin [um]=      0.100 amax [um]=      0.100  na  =    1     apow=   3.5    
#   lmin [um]=      0.050 lmax [um]=  10000.000  nlam=   60     nang=   180
#   porosity =      0.250 p_mantle =      0.000  fmax= 0.80     chop=   0.0
# Composition:
#  Where   mfrac  rho   Material
#  -----   -----  ----  -----------------------------------------------------
#  core    0.870  3.01  pyr-mg70
#  core    0.130  1.80  c-z
#  - - -   - - -  -  -  - - - - - - - - - - - - - - - - - - - - - - - - - - -
#  grain   1.000  2.08  mixture of  2 materials and vacuum
#----------------------------------------------------------------------------
# Command: optool -radmc 0.1um -a 0.1 -l 0.05 10000 60
#============================================================================
# Output file formatted for RADMC-3D, dustkappa, no scattering matrix
#    iformat
#    nlambda
#    lambda[um]  kabs [cm^2/g]  ksca [cm^2/g]    g_asymmetry
#============================================================================
           3
          60
   5.000000E-02   5.025229E+04   9.776619E+04   9.457008E-01
   6.149191E-02   4.925066E+04   1.079621E+05   9.271258E-01
   7.562510E-02   4.705111E+04   1.171847E+05   9.079339E-01
   9.300663E-02   4.342501E+04   1.172437E+05   8.874199E-01
   1.143831E-01   4.114891E+04   1.046958E+05   8.651481E-01
   1.406727E-01   3.772831E+04   8.905377E+04   8.360918E-01
   1.730047E-01   3.128312E+04   6.901623E+04   7.966044E-01
   2.127677E-01   3.442943E+04   4.265070E+04   7.601025E-01
   2.616699E-01   3.783733E+04   2.969570E+04   7.027739E-01
   3.218116E-01   3.583149E+04   2.428287E+04   6.464630E-01
   3.957762E-01   3.054249E+04   1.749036E+04   6.277239E-01
   4.867407E-01   2.424938E+04   1.138874E+04   5.678117E-01
   5.986122E-01   1.812609E+04   7.230571E+03   4.349792E-01
   7.361962E-01   1.315773E+04   4.265878E+03   3.005821E-01
   9.054022E-01   9.245901E+03   2.309290E+03   2.009142E-01
   1.113498E+00   6.628525E+03   1.157249E+03   1.333114E-01
   1.369423E+00   4.754963E+03   5.571562E+02   8.849995E-02
   1.684168E+00   3.497801E+03   2.560681E+02   5.863377E-02
   2.071254E+00   2.605136E+03   1.155397E+02   3.884132E-02
   2.547307E+00   1.968328E+03   5.177096E+01   2.573568E-02
   3.132776E+00   1.548705E+03   2.296508E+01   1.703597E-02
   3.852807E+00   1.218483E+03   1.020581E+01   1.128297E-02
   4.738329E+00   9.563600E+02   4.414033E+00   7.447280E-03
   5.827378E+00   7.638466E+02   1.744138E+00   4.859762E-03
   7.166732E+00   6.543294E+02   5.956565E-01   3.121001E-03
   8.813921E+00   2.990450E+03   2.689490E-01   1.817844E-03
   1.083970E+01   3.033820E+03   5.413516E-01   1.559308E-03
   1.333107E+01   9.227694E+02   1.256819E-01   1.004358E-03
   1.639506E+01   1.486711E+03   3.723592E-02   5.802488E-04
   2.016327E+01   2.146555E+03   5.266514E-02   4.233989E-04
   2.479756E+01   1.334704E+03   2.622787E-02   3.172221E-04
   3.049699E+01   9.850905E+02   1.312897E-02   2.224099E-04
   3.750636E+01   6.309534E+02   6.022177E-03   1.545089E-04
   4.612675E+01   4.330778E+02   2.650443E-03   1.026624E-04
   5.672844E+01   3.014468E+02   1.179784E-03   6.731120E-05
   6.976680E+01   2.141746E+02   5.250742E-04   4.317590E-05
   8.580188E+01   1.520670E+02   2.358370E-04   2.699834E-05
   1.055224E+02   1.091920E+02   1.044106E-04   1.593498E-05
   1.297755E+02   7.871844E+01   4.628951E-05   8.532089E-06
   1.596029E+02   5.666982E+01   2.055296E-05   3.587200E-06
   1.962857E+02   4.059312E+01   9.120622E-06   2.807463E-07
   2.413996E+02   2.908640E+01   4.033772E-06  -1.933689E-06
   2.968825E+02   2.090829E+01   1.783715E-06  -3.409795E-06
   3.651174E+02   1.498373E+01   7.889633E-07  -4.392462E-06
   4.490353E+02   1.100310E+01   3.478347E-07  -5.048671E-06
   5.522408E+02   7.872178E+00   1.535294E-07  -5.484076E-06
   6.791668E+02   5.757883E+00   6.763454E-08  -5.774021E-06
   8.352652E+02   4.181088E+00   2.982914E-08  -5.966286E-06
   1.027241E+03   2.998676E+00   1.312613E-08  -6.094310E-06
   1.263340E+03   2.156537E+00   5.771547E-09  -6.179224E-06
   1.553704E+03   1.550426E+00   2.537020E-09  -6.235465E-06
   1.910805E+03   1.114274E+00   1.114885E-09  -6.273137E-06
   2.349980E+03   8.005011E-01   4.897896E-10  -6.298472E-06
   2.890096E+03   5.747984E-01   2.151123E-10  -6.313744E-06
   3.554350E+03   4.124706E-01   9.444979E-11  -6.326557E-06
   4.371275E+03   2.957748E-01   4.145911E-11  -6.330691E-06
   5.375961E+03   2.119662E-01   1.819380E-11  -6.337712E-06
   6.611562E+03   1.517985E-01   7.982095E-12  -6.340933E-06
   8.131151E+03   1.086355E-01   3.501096E-12  -6.342506E-06
   1.000000E+04   7.768101E-02   1.535292E-12  -6.351296E-06
