#============================================================================
# Opacities computed by OpTool        <a^n>=  1.0000E+2  1.0000E+2  1.0000E+2
# Method:   DHS  fmax=  0.800
# Parameters:
#   amin [um]=    100.000 amax [um]=    100.000  na  =    1     apow=   3.5    
#   lmin [um]=      0.050 lmax [um]=  10000.000  nlam=   60     nang=   180
#   porosity =      0.250 p_mantle =      0.000  fmax= 0.80     chop=   0.0
# Composition:
#  Where   mfrac  rho   Material
#  -----   -----  ----  -----------------------------------------------------
#  core    0.870  3.01  pyr-mg70
#  core    0.130  1.80  c-z
#  - - -   - - -  -  -  - - - - - - - - - - - - - - - - - - - - - - - - - - -
#  grain   1.000  2.08  mixture of  2 materials and vacuum
#----------------------------------------------------------------------------
# Command: optool -radmc 100um -a 100 -l 0.05 10000 60
#============================================================================
# Output file formatted for RADMC-3D, dustkappa, no scattering matrix
#    iformat
#    nlambda
#    lambda[um]  kabs [cm^2/g]  ksca [cm^2/g]    g_asymmetry
#============================================================================
           3
          60
   5.000000E-02   5.209370E+01   6.115485E+01   9.847623E-01
   6.149191E-02   5.209370E+01   6.115485E+01   9.769724E-01
   7.562510E-02   5.209542E+01   6.115942E+01   9.684054E-01
   9.300663E-02   5.210161E+01   6.117525E+01   9.634935E-01
   1.143831E-01   5.202935E+01   6.128435E+01   9.613499E-01
   1.406727E-01   5.192854E+01   6.143030E+01   9.598171E-01
   1.730047E-01   5.199643E+01   6.141418E+01   9.605194E-01
   2.127677E-01   5.204242E+01   6.142559E+01   9.611361E-01
   2.616699E-01   5.177359E+01   6.176041E+01   9.575610E-01
   3.218116E-01   5.138599E+01   6.222693E+01   9.517924E-01
   3.957762E-01   5.121645E+01   6.248710E+01   9.487754E-01
   4.867407E-01   5.106707E+01   6.274042E+01   9.459407E-01
   5.986122E-01   5.092352E+01   6.300345E+01   9.430447E-01
   7.361962E-01   5.084607E+01   6.321768E+01   9.409653E-01
   9.054022E-01   5.082034E+01   6.340020E+01   9.394725E-01
   1.113498E+00   5.084275E+01   6.355708E+01   9.385080E-01
   1.369423E+00   5.087841E+01   6.372701E+01   9.375021E-01
   1.684168E+00   5.098579E+01   6.385470E+01   9.372679E-01
   2.071254E+00   5.112411E+01   6.398569E+01   9.371127E-01
   2.547307E+00   5.128304E+01   6.413592E+01   9.368489E-01
   3.132776E+00   5.148526E+01   6.428624E+01   9.367137E-01
   3.852807E+00   5.171055E+01   6.447072E+01   9.362883E-01
   4.738329E+00   5.204891E+01   6.460323E+01   9.368856E-01
   5.827378E+00   5.267451E+01   6.443337E+01   9.408198E-01
   7.166732E+00   5.369451E+01   6.393287E+01   9.491029E-01
   8.813921E+00   5.238622E+01   6.545529E+01   9.380263E-01
   1.083970E+01   4.870447E+01   7.087353E+01   8.653429E-01
   1.333107E+01   5.259553E+01   6.750042E+01   9.083012E-01
   1.639506E+01   5.402792E+01   6.679438E+01   9.226280E-01
   2.016327E+01   4.988361E+01   7.322581E+01   8.504018E-01
   2.479756E+01   5.066163E+01   7.365216E+01   8.429707E-01
   3.049699E+01   5.105712E+01   7.472156E+01   8.315578E-01
   3.750636E+01   5.201514E+01   7.518703E+01   8.260738E-01
   4.612675E+01   5.317083E+01   7.523866E+01   8.193126E-01
   5.672844E+01   5.434909E+01   7.463660E+01   8.117917E-01
   6.976680E+01   5.556887E+01   7.498658E+01   8.130520E-01
   8.580188E+01   5.592468E+01   7.976484E+01   8.130970E-01
   1.055224E+02   5.525303E+01   8.972561E+01   8.043990E-01
   1.297755E+02   5.271686E+01   1.012640E+02   7.829023E-01
   1.596029E+02   4.884886E+01   1.116873E+02   7.533201E-01
   1.962857E+02   4.420179E+01   1.199020E+02   7.060312E-01
   2.413996E+02   4.247843E+01   1.278737E+02   6.626108E-01
   2.968825E+02   4.323557E+01   1.361516E+02   5.750880E-01
   3.651174E+02   4.406068E+01   1.492253E+02   4.600685E-01
   4.490353E+02   5.324949E+01   1.563373E+02   3.778178E-01
   5.522408E+02   3.412771E+01   1.455803E+02   2.334323E-01
   6.791668E+02   3.352116E+01   8.763303E+01   5.111573E-01
   8.352652E+02   1.145938E+01   2.886160E+01   4.417495E-01
   1.027241E+03   5.572267E+00   1.255566E+01   2.817918E-01
   1.263340E+03   3.250528E+00   5.648843E+00   1.783284E-01
   1.553704E+03   2.048275E+00   2.517824E+00   1.149562E-01
   1.910805E+03   1.346646E+00   1.113168E+00   7.502987E-02
   2.349980E+03   9.100724E-01   4.901019E-01   4.930229E-02
   2.890096E+03   6.266906E-01   2.153690E-01   3.251094E-02
   3.554350E+03   4.370904E-01   9.455836E-02   2.147752E-02
   4.371275E+03   3.074620E-01   4.149769E-02   1.420177E-02
   5.375961E+03   2.175145E-01   1.820650E-02   9.394854E-03
   6.611562E+03   1.544315E-01   7.986105E-03   6.215857E-03
   8.131151E+03   1.098843E-01   3.502332E-03   4.112324E-03
   1.000000E+04   7.827285E-02   1.535667E-03   2.720038E-03
