#============================================================================
# Opacities computed by OpTool        <a^n>=  1.0000E+1  1.0000E+1  1.0000E+1
# Method:   DHS  fmax=  0.800
# Parameters:
#   amin [um]=     10.000 amax [um]=     10.000  na  =    1     apow=   3.5    
#   lmin [um]=      0.050 lmax [um]=  10000.000  nlam=   60     nang=   180
#   porosity =      0.250 p_mantle =      0.000  fmax= 0.80     chop=   0.0
# Composition:
#  Where   mfrac  rho   Material
#  -----   -----  ----  -----------------------------------------------------
#  core    0.870  3.01  pyr-mg70
#  core    0.130  1.80  c-z
#  - - -   - - -  -  -  - - - - - - - - - - - - - - - - - - - - - - - - - - -
#  grain   1.000  2.08  mixture of  2 materials and vacuum
#----------------------------------------------------------------------------
# Command: optool -radmc 10um -a 10 -l 0.05 10000 60
#============================================================================
# Output file formatted for RADMC-3D, dustkappa, no scattering matrix
#    iformat
#    nlambda
#    lambda[um]  kabs [cm^2/g]  ksca [cm^2/g]    g_asymmetry
#============================================================================
           3
          60
   5.000000E-02   5.230279E+02   6.151949E+02   9.625768E-01
   6.149191E-02   5.235623E+02   6.158564E+02   9.625999E-01
   7.562510E-02   5.242058E+02   6.165835E+02   9.626177E-01
   9.300663E-02   5.249799E+02   6.173800E+02   9.626317E-01
   1.143831E-01   5.250561E+02   6.190941E+02   9.615649E-01
   1.406727E-01   5.249915E+02   6.212206E+02   9.600312E-01
   1.730047E-01   5.268489E+02   6.217294E+02   9.607130E-01
   2.127677E-01   5.286180E+02   6.224631E+02   9.612957E-01
   2.616699E-01   5.273459E+02   6.266030E+02   9.577443E-01
   3.218116E-01   5.252665E+02   6.322858E+02   9.520007E-01
   3.957762E-01   5.258202E+02   6.358805E+02   9.489493E-01
   4.867407E-01   5.269897E+02   6.394339E+02   9.460912E-01
   5.986122E-01   5.287055E+02   6.432671E+02   9.430984E-01
   7.361962E-01   5.316590E+02   6.464602E+02   9.408333E-01
   9.054022E-01   5.355734E+02   6.484397E+02   9.388963E-01
   1.113498E+00   5.399924E+02   6.543575E+02   9.375182E-01
   1.369423E+00   5.432903E+02   6.688996E+02   9.367827E-01
   1.684168E+00   5.446775E+02   6.650482E+02   9.326256E-01
   2.071254E+00   5.413563E+02   6.564663E+02   9.303748E-01
   2.547307E+00   5.336655E+02   6.789878E+02   9.217733E-01
   3.132776E+00   5.263028E+02   7.172686E+02   9.173173E-01
   3.852807E+00   5.113325E+02   7.934305E+02   9.254774E-01
   4.738329E+00   4.880056E+02   8.953578E+02   9.296055E-01
   5.827378E+00   4.734887E+02   1.007414E+03   9.253832E-01
   7.166732E+00   4.929127E+02   1.097954E+03   9.102555E-01
   8.813921E+00   6.410858E+02   5.828990E+02   8.882360E-01
   1.083970E+01   6.444110E+02   8.258850E+02   8.315092E-01
   1.333107E+01   6.053288E+02   1.036641E+03   8.372713E-01
   1.639506E+01   6.746672E+02   6.097842E+02   8.142212E-01
   2.016327E+01   7.002206E+02   7.472356E+02   7.374722E-01
   2.479756E+01   6.953618E+02   8.197540E+02   6.922513E-01
   3.049699E+01   6.921463E+02   8.348903E+02   6.079502E-01
   3.750636E+01   7.027018E+02   8.639929E+02   5.324841E-01
   4.612675E+01   6.932366E+02   8.058143E+02   4.378700E-01
   5.672844E+01   6.907956E+02   7.037229E+02   4.258798E-01
   6.976680E+01   5.305854E+02   4.102503E+02   4.770898E-01
   8.580188E+01   2.976241E+02   2.001655E+02   3.674096E-01
   1.055224E+02   1.738729E+02   9.517396E+01   2.408738E-01
   1.297755E+02   1.091735E+02   4.423207E+01   1.559870E-01
   1.596029E+02   7.133156E+01   2.013304E+01   1.020811E-01
   1.962857E+02   4.765376E+01   9.040777E+00   6.732561E-02
   2.413996E+02   3.247857E+01   4.019668E+00   4.453744E-02
   2.968825E+02   2.254193E+01   1.781589E+00   2.952906E-02
   3.651174E+02   1.576777E+01   7.887867E-01   1.960434E-02
   4.490353E+02   1.138719E+01   3.478718E-01   1.300139E-02
   5.522408E+02   8.055692E+00   1.535622E-01   8.630639E-03
   6.791668E+02   5.847318E+00   6.764869E-02   5.723745E-03
   8.352652E+02   4.224396E+00   2.983448E-02   3.797595E-03
   1.027241E+03   3.019347E+00   1.312794E-02   2.516601E-03
   1.263340E+03   2.166421E+00   5.772134E-03   1.666383E-03
   1.553704E+03   1.555149E+00   2.537206E-03   1.102530E-03
   1.910805E+03   1.116529E+00   1.114943E-03   7.286397E-04
   2.349980E+03   8.015774E-01   4.898073E-04   4.807469E-04
   2.890096E+03   5.753116E-01   2.151177E-04   3.164170E-04
   3.554350E+03   4.127151E-01   9.445144E-05   2.074979E-04
   4.371275E+03   2.958912E-01   4.145960E-05   1.353159E-04
   5.375961E+03   2.120215E-01   1.819395E-05   8.748656E-05
   6.611562E+03   1.518248E-01   7.982139E-06   5.579827E-05
   8.131151E+03   1.086480E-01   3.501109E-06   3.480663E-05
   1.000000E+04   7.768692E-02   1.535296E-06   2.090271E-05
