#============================================================================
# Opacities computed by OpTool        <a^n>=  1.0000E+0  1.0000E+0  1.0000E+0
# Method:   DHS  fmax=  0.800
# Parameters:
#   amin [um]=      1.000 amax [um]=      1.000  na  =    1     apow=   3.5    
#   lmin [um]=      0.050 lmax [um]=  10000.000  nlam=   60     nang=   180
#   porosity =      0.250 p_mantle =      0.000  fmax= 0.80     chop=   0.0
# Composition:
#  Where   mfrac  rho   Material
#  -----   -----  ----  -----------------------------------------------------
#  core    0.870  3.01  pyr-mg70
#  core    0.130  1.80  c-z
#  - - -   - - -  -  -  - - - - - - - - - - - - - - - - - - - - - - - - - - -
#  grain   1.000  2.08  mixture of  2 materials and vacuum
#----------------------------------------------------------------------------
# Command: optool -radmc 1um -a 1 -l 0.05 10000 60
#============================================================================
# Output file formatted for RADMC-3D, dustkappa, no scattering matrix
#    iformat
#    nlambda
#    lambda[um]  kabs [cm^2/g]  ksca [cm^2/g]    g_asymmetry
#============================================================================
           3
          60
   5.000000E-02   5.403781E+03   6.275583E+03   9.623721E-01
   6.149191E-02   5.437930E+03   6.267913E+03   9.619469E-01
   7.562510E-02   5.472183E+03   6.334645E+03   9.617843E-01
   9.300663E-02   5.500185E+03   6.438700E+03   9.617579E-01
   1.143831E-01   5.537191E+03   6.381970E+03   9.595903E-01
   1.406727E-01   5.553820E+03   6.264718E+03   9.553683E-01
   1.730047E-01   5.535449E+03   6.357129E+03   9.550593E-01
   2.127677E-01   5.733981E+03   6.605900E+03   9.563612E-01
   2.616699E-01   5.853873E+03   6.763424E+03   9.535135E-01
   3.218116E-01   5.899487E+03   6.996508E+03   9.491947E-01
   3.957762E-01   5.903928E+03   7.424808E+03   9.482633E-01
   4.867407E-01   5.876502E+03   7.977625E+03   9.435764E-01
   5.986122E-01   5.818285E+03   8.678750E+03   9.320418E-01
   7.361962E-01   5.724006E+03   9.564542E+03   9.141508E-01
   9.054022E-01   5.525787E+03   1.070349E+04   8.913434E-01
   1.113498E+00   5.222893E+03   1.170706E+04   8.637301E-01
   1.369423E+00   4.745855E+03   1.207655E+04   8.312481E-01
   1.684168E+00   4.144408E+03   1.122992E+04   7.908893E-01
   2.071254E+00   3.501581E+03   9.488814E+03   7.482467E-01
   2.547307E+00   2.834049E+03   7.444341E+03   6.763385E-01
   3.132776E+00   2.322999E+03   5.318110E+03   6.028293E-01
   3.852807E+00   1.944423E+03   3.597626E+03   5.903746E-01
   4.738329E+00   1.435186E+03   1.891348E+03   5.866581E-01
   5.827378E+00   1.004492E+03   9.004958E+02   4.581252E-01
   7.166732E+00   7.771471E+02   3.717276E+02   3.073419E-01
   8.813921E+00   2.893266E+03   1.709228E+02   1.867939E-01
   1.083970E+01   3.493236E+03   4.360622E+02   1.577660E-01
   1.333107E+01   1.036317E+03   1.123047E+02   1.011708E-01
   1.639506E+01   1.544919E+03   3.373647E+01   5.865612E-02
   2.016327E+01   2.262091E+03   5.001543E+01   4.271447E-02
   2.479756E+01   1.413378E+03   2.565306E+01   3.226713E-02
   3.049699E+01   1.032567E+03   1.299501E+01   2.283874E-02
   3.750636E+01   6.542840E+02   5.995477E+00   1.607933E-02
   4.612675E+01   4.442701E+02   2.644540E+00   1.089728E-02
   5.672844E+01   3.068433E+02   1.178491E+00   7.361739E-03
   6.976680E+01   2.167992E+02   5.247905E-01   4.947311E-03
   8.580188E+01   1.533453E+02   2.357807E-01   3.328974E-03
   1.055224E+02   1.098114E+02   1.043989E-01   2.222227E-03
   1.297755E+02   7.901936E+01   4.628735E-02   1.481722E-03
   1.596029E+02   5.681573E+01   2.055267E-02   9.871242E-04
   1.962857E+02   4.066341E+01   9.120623E-03   6.564241E-04
   2.413996E+02   2.912013E+01   4.033792E-03   4.349516E-04
   2.968825E+02   2.092452E+01   1.783726E-03   2.873301E-04
   3.651174E+02   1.499151E+01   7.889681E-04   1.890588E-04
   4.490353E+02   1.100691E+01   3.478364E-04   1.234337E-04
   5.522408E+02   7.873998E+00   1.535300E-04   7.989437E-05
   6.791668E+02   5.758770E+00   6.763473E-05   5.089811E-05
   8.352652E+02   4.181517E+00   2.982921E-05   3.166801E-05
   1.027241E+03   2.998881E+00   1.312615E-05   1.887199E-05
   1.263340E+03   2.156635E+00   5.771554E-06   1.037596E-05
   1.553704E+03   1.550473E+00   2.537022E-06   4.740160E-06
   1.910805E+03   1.114296E+00   1.114886E-06   1.002464E-06
   2.349980E+03   8.005118E-01   4.897898E-07  -1.475934E-06
   2.890096E+03   5.748035E-01   2.151124E-07  -3.118990E-06
   3.554350E+03   4.124730E-01   9.444981E-08  -4.208062E-06
   4.371275E+03   2.957760E-01   4.145911E-08  -4.929846E-06
   5.375961E+03   2.119667E-01   1.819380E-08  -5.408061E-06
   6.611562E+03   1.517988E-01   7.982096E-09  -5.724998E-06
   8.131151E+03   1.086356E-01   3.501096E-09  -5.934908E-06
   1.000000E+04   7.768107E-02   1.535292E-09  -6.074028E-06
