#============================================================================
# Opacities computed by OpTool        <a^n>=  1.0000E+3  1.0000E+3  1.0000E+3
# Method:   DHS  fmax=  0.800
# Parameters:
#   amin [um]=   1000.000 amax [um]=   1000.000  na  =    1     apow=   3.5    
#   lmin [um]=      0.050 lmax [um]=  10000.000  nlam=   60     nang=   180
#   porosity =      0.250 p_mantle =      0.000  fmax= 0.80     chop=   0.0
# Composition:
#  Where   mfrac  rho   Material
#  -----   -----  ----  -----------------------------------------------------
#  core    0.870  3.01  pyr-mg70
#  core    0.130  1.80  c-z
#  - - -   - - -  -  -  - - - - - - - - - - - - - - - - - - - - - - - - - - -
#  grain   1.000  2.08  mixture of  2 materials and vacuum
#----------------------------------------------------------------------------
# Command: optool -radmc 1mm -a 1000 -l 0.05 10000 60
#============================================================================
# Output file formatted for RADMC-3D, dustkappa, no scattering matrix
#    iformat
#    nlambda
#    lambda[um]  kabs [cm^2/g]  ksca [cm^2/g]    g_asymmetry
#============================================================================
           3
          60
   5.000000E-02   5.209370E+00   6.115485E+00   9.998099E-01
   6.149191E-02   5.209370E+00   6.115485E+00   9.997320E-01
   7.562510E-02   5.209370E+00   6.115485E+00   9.996142E-01
   9.300663E-02   5.209370E+00   6.115485E+00   9.994360E-01
   1.143831E-01   5.201078E+00   6.123772E+00   9.991432E-01
   1.406727E-01   5.189640E+00   6.135213E+00   9.986739E-01
   1.730047E-01   5.194758E+00   6.130097E+00   9.980470E-01
   2.127677E-01   5.197407E+00   6.127376E+00   9.971096E-01
   2.616699E-01   5.168330E+00   6.156406E+00   9.952478E-01
   3.218116E-01   5.126849E+00   6.197934E+00   9.918560E-01
   3.957762E-01   5.106490E+00   6.218332E+00   9.869247E-01
   4.867407E-01   5.087447E+00   6.237407E+00   9.791371E-01
   5.986122E-01   5.068139E+00   6.256745E+00   9.667495E-01
   7.361962E-01   5.054536E+00   6.270827E+00   9.514961E-01
   9.054022E-01   5.045293E+00   6.282096E+00   9.414599E-01
   1.113498E+00   5.039867E+00   6.291074E+00   9.380597E-01
   1.369423E+00   5.034370E+00   6.301041E+00   9.370238E-01
   1.684168E+00   5.034241E+00   6.306292E+00   9.367695E-01
   2.071254E+00   5.035089E+00   6.311320E+00   9.366221E-01
   2.547307E+00   5.035512E+00   6.317639E+00   9.363629E-01
   3.132776E+00   5.037300E+00   6.323580E+00   9.362528E-01
   3.852807E+00   5.038129E+00   6.331622E+00   9.359178E-01
   4.738329E+00   5.046415E+00   6.333497E+00   9.365862E-01
   5.827378E+00   5.078994E+00   6.312509E+00   9.407243E-01
   7.166732E+00   5.145516E+00   6.259074E+00   9.495650E-01
   8.813921E+00   5.010406E+00   6.404028E+00   9.382956E-01
   1.083970E+01   4.557423E+00   6.885617E+00   8.637838E-01
   1.333107E+01   4.891422E+00   6.567564E+00   9.089033E-01
   1.639506E+01   4.976911E+00   6.502130E+00   9.240223E-01
   2.016327E+01   4.470500E+00   7.049787E+00   8.495121E-01
   2.479756E+01   4.467722E+00   7.084086E+00   8.431693E-01
   3.049699E+01   4.418085E+00   7.170886E+00   8.325974E-01
   3.750636E+01   4.424048E+00   7.202937E+00   8.292978E-01
   4.612675E+01   4.452319E+00   7.218541E+00   8.291958E-01
   5.672844E+01   4.475283E+00   7.245498E+00   8.278903E-01
   6.976680E+01   4.501949E+00   7.275653E+00   8.264723E-01
   8.580188E+01   4.527122E+00   7.314487E+00   8.240768E-01
   1.055224E+02   4.568274E+00   7.346001E+00   8.228841E-01
   1.297755E+02   4.615963E+00   7.380148E+00   8.214910E-01
   1.596029E+02   4.668534E+00   7.414386E+00   8.193967E-01
   1.962857E+02   4.721083E+00   7.485123E+00   8.172930E-01
   2.413996E+02   4.783028E+00   7.510897E+00   8.163093E-01
   2.968825E+02   4.768754E+00   7.625345E+00   8.071539E-01
   3.651174E+02   4.769428E+00   7.905136E+00   8.129654E-01
   4.490353E+02   4.638284E+00   8.294946E+00   8.023912E-01
   5.522408E+02   4.355203E+00   8.455702E+00   7.746123E-01
   6.791668E+02   4.178351E+00   8.343457E+00   7.608977E-01
   8.352652E+02   3.910029E+00   8.966055E+00   7.784139E-01
   1.027241E+03   3.565213E+00   1.035739E+01   7.734980E-01
   1.263340E+03   3.093244E+00   1.206113E+01   7.488738E-01
   1.553704E+03   2.595490E+00   1.327147E+01   7.150058E-01
   1.910805E+03   2.128813E+00   1.419875E+01   6.691449E-01
   2.349980E+03   2.290749E+00   1.456809E+01   6.216771E-01
   2.890096E+03   1.981389E+00   1.523162E+01   5.549253E-01
   3.554350E+03   3.195123E+00   1.951505E+01   4.463305E-01
   4.371275E+03   2.701137E+00   2.179900E+01   3.705512E-01
   5.375961E+03   9.634548E-01   1.668173E+01   1.370407E-01
   6.611562E+03   1.599627E+00   1.568481E+01   4.377191E-01
   8.131151E+03   3.686961E-01   3.668463E+00   4.810230E-01
   1.000000E+04   1.580712E-01   1.495653E+00   3.093368E-01
